opti prop conp full nosymmetry
title
111_cell
end
cell
19.640766 9.793325 6.487915 112.688542 101.0888 104.763598
name 111_cell
fractional
Fe c 0.0 0.0 0.5
Fe c 0.0 0.499999 0.5
Fe c 0.010416 0.249999 0.479166
Fe c 0.046875 0.359378 0.187498
Fe c 0.047538 0.5 0.904921
Fe c 0.059565 0.82131 0.238259
Fe c 0.083333 0.25 0.833332
Fe c 0.083333 0.75 0.833332
Fe c 0.107101 0.67869 0.428405
Fe c 0.119128 1e-06 0.761744
Fe c 0.119792 0.140624 0.479167
Fe c 0.15625 0.250001 0.187499
Fe c 0.166667 1e-06 0.166664
Fe c 0.166667 0.5 0.166664
Fe c 0.177083 0.75 0.145832
Fe c 0.213541 0.859375 0.854162
Fe c 0.214204 0.0 0.571586
Fe c 0.22623 0.321307 0.904921
Fe c 0.25 0.25 0.499999
Fe c 0.25 0.75 0.499998
Fe c 0.27377 0.178694 0.095076
Fe c 0.285795 0.500001 0.428409
Fe c 0.286459 0.640625 0.145834
Fe c 0.322917 0.750001 0.854165
Fe c 0.333333 0.0 0.833332
Fe c 0.333333 0.5 0.833332
Fe c 0.343749 0.249999 0.812499
Fe c 0.380208 0.359376 0.520831
Fe c 0.380872 0.499999 0.238255
Fe c 0.392898 0.821308 0.571589
Fe c 0.416667 0.25 0.166665
Fe c 0.416667 0.75 0.166665
Fe c 0.440435 0.678692 0.761741
Fe c 0.452462 1e-06 0.095076
Fe c 0.453125 0.140624 0.8125
Fe c 0.489584 0.250001 0.520832
Fe c 0.5 0.0 0.499998
Fe c 0.5 0.5 0.499999
Fe c 0.510416 0.749999 0.479166
Fe c 0.546875 0.859376 0.187497
Fe c 0.547538 0.0 0.90492
Fe c 0.559564 0.321305 0.238254
Fe c 0.583333 0.25 0.833332
Fe c 0.583333 0.75 0.833332
Fe c 0.607103 0.178695 0.42841
Fe c 0.619129 0.500002 0.761745
Fe c 0.619792 0.640625 0.479167
Fe c 0.656251 0.750001 0.187498
Fe c 0.666666 0.5 0.166666
Fe c 0.666667 1e-06 0.166665
Fe c 0.677083 0.25 0.145833
Fe c 0.713542 0.359377 0.854166
Fe c 0.714205 0.499999 0.571588
Fe c 0.72623 0.821307 0.904921
Fe c 0.75 0.250001 0.5
Fe c 0.75 0.75 0.499999
Fe c 0.77377 0.678693 0.095077
Fe c 0.785795 1e-06 0.42841
Fe c 0.786459 0.140625 0.145834
Fe c 0.822917 0.250001 0.854166
Fe c 0.833333 0.0 0.833332
Fe c 0.833334 0.500001 0.833333
Fe c 0.84375 0.75 0.812501
Fe c 0.880208 0.859375 0.520832
Fe c 0.880871 0.0 0.238255
Fe c 0.892897 0.321308 0.571589
Fe c 0.916667 0.25 0.166665
Fe c 0.916667 0.75 0.166667
Fe c 0.940436 0.178693 0.761742
Fe c 0.952462 0.500002 0.095079
Fe c 0.953126 0.640626 0.812503
Fe c 0.989584 0.750001 0.520833
Nd c 0.0 1e-06 0.0
Nd c 0.166666 0.5 0.666665
Nd c 0.333333 0.0 0.333332
Nd c 0.5 0.5 0.0
Nd c 0.666666 1e-06 0.666665
Nd c 0.833333 0.5 0.333334
#COORD_END
morse
Nd Nd 0.312 0.945 4.092 12
morse
Nd Fe 0.6036 1.6458 3.188 12
morse
Fe Fe 0.764 1.5995 2.7361 12
dump test_files/111_cell_restart.gin
output cif test_files/111_cell.cif
output xyz test_files/111_cell.xyz
