opti prop conp full nosymmetry
title
Supercell_Minimisation
end
cell
11.49 11.49 11.49 90.0 90.0 90.0
name Supercell_Minimisation
fractional
Fe c 0.0 0.0 0.0
Fe c 0.0 0.0 0.3333333333333333
Fe c 0.0 0.0 0.6666666666666666
Fe c 0.0 0.3333333333333333 0.0
Fe c 0.0 0.3333333333333333 0.3333333333333333
Fe c 0.0 0.3333333333333333 0.6666666666666666
Fe c 0.0 0.6666666666666666 0.0
Fe c 0.0 0.6666666666666666 0.3333333333333333
Fe c 0.0 0.6666666666666666 0.6666666666666666
Fe c 0.16666666666666666 0.16666666666666666 0.0
Fe c 0.16666666666666666 0.16666666666666666 0.3333333333333333
Fe c 0.16666666666666666 0.16666666666666666 0.6666666666666666
Fe c 0.16666666666666666 0.5 0.0
Fe c 0.16666666666666666 0.5 0.3333333333333333
Fe c 0.16666666666666666 0.5 0.6666666666666666
Fe c 0.16666666666666666 0.8333333333333333 0.0
Fe c 0.16666666666666666 0.8333333333333333 0.3333333333333333
Fe c 0.16666666666666666 0.8333333333333333 0.6666666666666666
Fe c 0.3333333333333333 0.0 0.0
Fe c 0.3333333333333333 0.0 0.3333333333333333
Fe c 0.3333333333333333 0.0 0.6666666666666666
Fe c 0.3333333333333333 0.3333333333333333 0.0
Fe c 0.3333333333333333 0.3333333333333333 0.3333333333333333
Fe c 0.3333333333333333 0.3333333333333333 0.6666666666666666
Fe c 0.3333333333333333 0.6666666666666666 0.0
Fe c 0.3333333333333333 0.6666666666666666 0.3333333333333333
Fe c 0.3333333333333333 0.6666666666666666 0.6666666666666666
Fe c 0.5 0.16666666666666666 0.0
Fe c 0.5 0.16666666666666666 0.3333333333333333
Fe c 0.5 0.16666666666666666 0.6666666666666666
Fe c 0.5 0.5 0.0
Fe c 0.5 0.5 0.3333333333333333
Fe c 0.5 0.5 0.6666666666666666
Fe c 0.5 0.8333333333333333 0.0
Fe c 0.5 0.8333333333333333 0.3333333333333333
Fe c 0.5 0.8333333333333333 0.6666666666666666
Fe c 0.6666666666666666 0.0 0.0
Fe c 0.6666666666666666 0.0 0.3333333333333333
Fe c 0.6666666666666666 0.0 0.6666666666666666
Fe c 0.6666666666666666 0.3333333333333333 0.0
Fe c 0.6666666666666666 0.3333333333333333 0.3333333333333333
Fe c 0.6666666666666666 0.3333333333333333 0.6666666666666666
Fe c 0.6666666666666666 0.6666666666666666 0.0
Fe c 0.6666666666666666 0.6666666666666666 0.3333333333333333
Fe c 0.6666666666666666 0.6666666666666666 0.6666666666666666
Fe c 0.8333333333333333 0.16666666666666666 0.0
Fe c 0.8333333333333333 0.16666666666666666 0.3333333333333333
Fe c 0.8333333333333333 0.16666666666666666 0.6666666666666666
Fe c 0.8333333333333333 0.5 0.0
Fe c 0.8333333333333333 0.5 0.3333333333333333
Fe c 0.8333333333333333 0.5 0.6666666666666666
Fe c 0.8333333333333333 0.8333333333333333 0.0
Fe c 0.8333333333333333 0.8333333333333333 0.3333333333333333
Fe c 0.8333333333333333 0.8333333333333333 0.6666666666666666
Pt c 0.0 0.16666666666666666 0.16666666666666666
Pt c 0.0 0.16666666666666666 0.5
Pt c 0.0 0.16666666666666666 0.8333333333333333
Pt c 0.0 0.5 0.16666666666666666
Pt c 0.0 0.5 0.5
Pt c 0.0 0.5 0.8333333333333333
Pt c 0.0 0.8333333333333333 0.16666666666666666
Pt c 0.0 0.8333333333333333 0.5
Pt c 0.0 0.8333333333333333 0.8333333333333333
Pt c 0.16666666666666666 0.0 0.16666666666666666
Pt c 0.16666666666666666 0.0 0.5
Pt c 0.16666666666666666 0.0 0.8333333333333333
Pt c 0.16666666666666666 0.3333333333333333 0.16666666666666666
Pt c 0.16666666666666666 0.3333333333333333 0.5
Pt c 0.16666666666666666 0.3333333333333333 0.8333333333333333
Pt c 0.16666666666666666 0.6666666666666666 0.16666666666666666
Pt c 0.16666666666666666 0.6666666666666666 0.5
Pt c 0.16666666666666666 0.6666666666666666 0.8333333333333333
Pt c 0.3333333333333333 0.16666666666666666 0.16666666666666666
Pt c 0.3333333333333333 0.16666666666666666 0.5
Pt c 0.3333333333333333 0.16666666666666666 0.8333333333333333
Pt c 0.3333333333333333 0.5 0.16666666666666666
Pt c 0.3333333333333333 0.5 0.5
Pt c 0.3333333333333333 0.5 0.8333333333333333
Pt c 0.3333333333333333 0.8333333333333333 0.16666666666666666
Pt c 0.3333333333333333 0.8333333333333333 0.5
Pt c 0.3333333333333333 0.8333333333333333 0.8333333333333333
Pt c 0.5 0.0 0.16666666666666666
Pt c 0.5 0.0 0.5
Pt c 0.5 0.0 0.8333333333333333
Pt c 0.5 0.3333333333333333 0.16666666666666666
Pt c 0.5 0.3333333333333333 0.5
Pt c 0.5 0.3333333333333333 0.8333333333333333
Pt c 0.5 0.6666666666666666 0.16666666666666666
Pt c 0.5 0.6666666666666666 0.5
Pt c 0.5 0.6666666666666666 0.8333333333333333
Pt c 0.6666666666666666 0.16666666666666666 0.16666666666666666
Pt c 0.6666666666666666 0.16666666666666666 0.5
Pt c 0.6666666666666666 0.16666666666666666 0.8333333333333333
Pt c 0.6666666666666666 0.5 0.16666666666666666
Pt c 0.6666666666666666 0.5 0.5
Pt c 0.6666666666666666 0.5 0.8333333333333333
Pt c 0.6666666666666666 0.8333333333333333 0.16666666666666666
Pt c 0.6666666666666666 0.8333333333333333 0.5
Pt c 0.6666666666666666 0.8333333333333333 0.8333333333333333
Pt c 0.8333333333333333 0.0 0.16666666666666666
Pt c 0.8333333333333333 0.0 0.5
Pt c 0.8333333333333333 0.0 0.8333333333333333
Pt c 0.8333333333333333 0.3333333333333333 0.16666666666666666
Pt c 0.8333333333333333 0.3333333333333333 0.5
Pt c 0.8333333333333333 0.3333333333333333 0.8333333333333333
Pt c 0.8333333333333333 0.6666666666666666 0.16666666666666666
Pt c 0.8333333333333333 0.6666666666666666 0.5
Pt c 0.8333333333333333 0.6666666666666666 0.8333333333333333
#COORD_END
library nodump meam_2nn
dump Supercell_Minimisation_restart.gin
output cif Supercell_Minimisation.cif
output xyz Supercell_Minimisation.xyz
